NAME          
ROWS
 N  OBJ
 L  c1
 L  c2
COLUMNS
    MARKER    'MARKER'                 'INTORG'
    x[1]      c1        717
    x[1]      c2        725
    x[1]      OBJ       -757
    x[2]      c1        737
    x[2]      c2        984
    x[2]      OBJ       -776
    x[3]      c1        828
    x[3]      c2        133
    x[3]      OBJ       -670
    x[4]      c1        531
    x[4]      c2        176
    x[4]      OBJ       -806
    x[5]      c1        286
    x[5]      c2        516
    x[5]      OBJ       -831
    x[6]      c1        538
    x[6]      c2        269
    x[6]      OBJ       -559
    x[7]      c1        843
    x[7]      c2        76
    x[7]      OBJ       -402
    x[8]      c1        719
    x[8]      c2        10
    x[8]      OBJ       -133
    x[9]      c1        888
    x[9]      c2        311
    x[9]      OBJ       -212
    x[10]     c1        901
    x[10]     c2        37
    x[10]     OBJ       -284
    x[11]     c1        484
    x[11]     c2        6
    x[11]     OBJ       -758
    x[12]     c1        298
    x[12]     c2        974
    x[12]     OBJ       -423
    x[13]     c1        270
    x[13]     c2        439
    x[13]     OBJ       -154
    x[14]     c1        573
    x[14]     c2        54
    x[14]     OBJ       -943
    x[15]     c1        755
    x[15]     c2        213
    x[15]     OBJ       -250
    x[16]     c1        272
    x[16]     c2        442
    x[16]     OBJ       -392
    x[17]     c1        594
    x[17]     c2        755
    x[17]     OBJ       -30
    x[18]     c1        424
    x[18]     c2        582
    x[18]     OBJ       -377
    x[19]     c1        762
    x[19]     c2        85
    x[19]     OBJ       -931
    x[20]     c1        351
    x[20]     c2        67
    x[20]     OBJ       -293
    x[21]     c1        969
    x[21]     c2        497
    x[21]     OBJ       -245
    x[22]     c1        322
    x[22]     c2        248
    x[22]     OBJ       -110
    x[23]     c1        564
    x[23]     c2        267
    x[23]     OBJ       -767
    x[24]     c1        158
    x[24]     c2        988
    x[24]     OBJ       -743
    x[25]     c1        106
    x[25]     c2        245
    x[25]     OBJ       -726
    x[26]     c1        377
    x[26]     c2        84
    x[26]     OBJ       -403
    x[27]     c1        843
    x[27]     c2        105
    x[27]     OBJ       -114
    x[28]     c1        633
    x[28]     c2        103
    x[28]     OBJ       -888
    x[29]     c1        324
    x[29]     c2        338
    x[29]     OBJ       -669
    x[30]     c1        163
    x[30]     c2        82
    x[30]     OBJ       -741
    x[31]     c1        788
    x[31]     c2        835
    x[31]     OBJ       -587
    x[32]     c1        510
    x[32]     c2        221
    x[32]     OBJ       -598
    x[33]     c1        124
    x[33]     c2        260
    x[33]     OBJ       -783
    x[34]     c1        123
    x[34]     c2        994
    x[34]     OBJ       -134
    x[35]     c1        479
    x[35]     c2        842
    x[35]     OBJ       -984
    x[36]     c1        242
    x[36]     c2        767
    x[36]     OBJ       -950
    x[37]     c1        839
    x[37]     c2        727
    x[37]     OBJ       -991
    x[38]     c1        213
    x[38]     c2        757
    x[38]     OBJ       -862
    x[39]     c1        797
    x[39]     c2        982
    x[39]     OBJ       -522
    x[40]     c1        422
    x[40]     c2        769
    x[40]     OBJ       -255
    x[41]     c1        804
    x[41]     c2        608
    x[41]     OBJ       -180
    x[42]     c1        265
    x[42]     c2        716
    x[42]     OBJ       -813
    x[43]     c1        934
    x[43]     c2        480
    x[43]     OBJ       -535
    x[44]     c1        143
    x[44]     c2        191
    x[44]     OBJ       -820
    x[45]     c1        243
    x[45]     c2        506
    x[45]     OBJ       -371
RHS
    rhs       c1        11578
    rhs       c2        9733
RANGES
BOUNDS
 BV bounds    x[1]
 BV bounds    x[2]
 BV bounds    x[3]
 BV bounds    x[4]
 BV bounds    x[5]
 BV bounds    x[6]
 BV bounds    x[7]
 BV bounds    x[8]
 BV bounds    x[9]
 BV bounds    x[10]
 BV bounds    x[11]
 BV bounds    x[12]
 BV bounds    x[13]
 BV bounds    x[14]
 BV bounds    x[15]
 BV bounds    x[16]
 BV bounds    x[17]
 BV bounds    x[18]
 BV bounds    x[19]
 BV bounds    x[20]
 BV bounds    x[21]
 BV bounds    x[22]
 BV bounds    x[23]
 BV bounds    x[24]
 BV bounds    x[25]
 BV bounds    x[26]
 BV bounds    x[27]
 BV bounds    x[28]
 BV bounds    x[29]
 BV bounds    x[30]
 BV bounds    x[31]
 BV bounds    x[32]
 BV bounds    x[33]
 BV bounds    x[34]
 BV bounds    x[35]
 BV bounds    x[36]
 BV bounds    x[37]
 BV bounds    x[38]
 BV bounds    x[39]
 BV bounds    x[40]
 BV bounds    x[41]
 BV bounds    x[42]
 BV bounds    x[43]
 BV bounds    x[44]
 BV bounds    x[45]
ENDATA
